473940
0 2391 2390 2389 2386 2387 2388 1354 1355 1353 1352 1349 1350 8 7 6 3 2 1 4 5 1351 9 10 17 18 19 20 21 22 23 24 25 26 27 28 29 30 32 31 52 51 53 54 55 56 57 60 59 58 61 62 63 64 65 66 67 68 69 70 71 1256 1257 1258 1259 1260 1261 1262 1263 1264 1265 1266 1267 1268 1269 1270 1271 1272 1273 1274 1338 1339 1340 1341 1342 1343 1344 1345 1346 1348 1347 11 12 13 14 15 16 2363 2366 2361 2362 2360 2358 2357 2356 2355 2354 2353 2352 2351 2370 2371 2372 2373 2374 2375 2376 2377 2378 2379 2380 2381 2382 2383 2384 2385 1365 1363 1362 1361 1359 1360 1358 1356 1357 1392 1393 1394 1395 1390 1389 1386 1387 1388 1391 1396 1397 1398 1399 1400 1401 1402 1403 1404 1405 1406 1407 1408 1409 1411 1410 1422 1421 1420 1419 1418 1417 1416 1415 1414 1413 1412 1423 1424 1425 1426 1427 1429 1430 1428 1431 1432 1433 1434 1435 1436 1437 1438 1439 1440 1441 1444 1443 1448 1447 1446 1445 1442 1449 1451 1452 1453 1454 1455 1456 1457 1458 1459 1460 1461 1462 1463 1464 1465 1466 1467 1468 1469 1470 1471 1472 1473 1475 1476 1474 1477 1478 1479 1480 1481 1482 1483 1484 1485 1488 1487 1486 1502 1503 1504 1505 1506 1507 1508 1510 1511 1512 1513 1514 1515 1516 1517 1518 1519 1522 1520 1521 1581 1582 1583 1579 1578 1577 1580 1575 1576 1574 1573 1572 1571 1570 1569 1568 1567 1566 1565 1564 1563 1562 1560 1561 1559 1558 1557 1556 1555 1554 1553 1550 1549 1551 1552 1544 1543 1542 1541 1540 1538 1539 1537 1536 1535 1534 1533 1532 1531 1528 1529 1530 1527 1525 1526 1524 1523 1509 1501 1500 1499 1498 1497 1496 1593 1592 1594 1595 1596 1495 1494 1491 1492 1493 1490 1489 1591 1589 1590 1588 1587 1586 1585 1584 2167 2166 2165 2164 2163 2162 2172 2171 2170 2169 2168 2173 2174 2175 2176 2103 2104 2105 2106 2107 2108 2109 2110 2111 2113 2112 2114 2115 2153 2152 2151 2148 2149 2150 2116 2117 2118 2119 2120 2121 2123 2122 2124 2125 2127 2128 2129 2130 2131 2132 2133 2134 2135 2136 2138 2137 2141 2140 2139 1669 1670 1671 1672 1673 1674 1675 1676 1677 1658 1657 1656 1655 1654 1653 1652 1651 1650 1649 1648 1647 1646 1645 1644 1643 1642 1641 1640 1639 1638 1637 1636 1635 1634 1621 1622 1623 1624 1625 1626 1627 1628 1630 1629 1631 1632 1633 1620 1619 1618 1617 2155 2154 2146 2147 2145 2144 2142 2143 2126 1987 1988 1989 1990 1991 1992 1993 1994 1995 1996 1997 2010 2009 2008 2007 2006 2005 2004 2003 2001 2002 1978 1977 1976 1975 1974 1973 1972 1971 1968 1967 1969 1964 1965 1966 1970 1963 1961 1960 1959 1958 1957 1956 1955 1954 1981 1980 1979 1983 1982 1984 1985 1986 2000 1999 1998 2011 2012 2013 2014 2015 2016 2017 2022 2023 2024 2025 2026 2027 2028 2029 2030 2032 2031 2052 2051 2053 2054 2055 2056 2050 2049 2047 2046 2045 2044 2043 2042 2041 2040 2039 2038 2036 2037 2033 2034 2035 1962 2048 505 504 503 502 501 2058 2057 2059 2060 2063 2062 489 490 491 494 495 496 497 498 499 500 514 515 516 517 518 519 520 521 522 523 527 526 525 524 528 529 531 532 533 534 535 536 537 538 511 512 513 509 510 508 507 506 493 492 2061 488 487 480 479 478 477 476 475 474 471 472 473 439 438 437 440 434 436 435 433 432 431 430 429 428 427 426 382 381 380 379 378 377 376 375 374 373 372 371 370 369 368 367 366 365 364 2074 2073 2072 2071 2070 2069 2068 2067 2066 2064 2065 486 485 484 483 482 481 469 470 468 467 465 466 445 446 444 443 441 442 447 448 450 451 452 453 454 455 456 457 458 459 461 460 464 463 462 530 449 848 849 850 851 852 853 854 855 856 857 858 871 870 869 868 867 866 865 864 862 863 839 838 837 836 835 834 833 832 829 828 830 825 826 827 831 824 822 821 820 819 818 817 816 815 842 841 840 844 843 845 846 847 861 860 859 872 873 874 875 878 879 880 881 882 883 884 885 886 887 888 889 891 890 911 910 912 913 914 915 916 919 918 917 920 921 922 923 924 925 926 927 928 929 930 931 932 410 409 408 407 406 405 404 403 402 401 400 399 398 397 396 395 394 425 424 423 422 421 420 419 418 417 416 415 414 413 412 411 876 877 909 908 906 905 904 903 902 901 900 899 898 897 895 896 892 893 894 823 907 725 726 727 728 729 730 731 732 733 734 735 736 737 738 739 740 741 742 745 744 743 713 712 711 710 709 708 707 706 705 704 703 702 701 700 699 698 697 696 695 694 690 691 692 753 752 751 750 749 748 747 746 764 765 763 762 760 759 758 757 756 754 755 761 772 773 786 787 788 785 784 783 782 781 780 777 680 681 776 775 774 683 684 682 685 686 687 688 689 693 766 767 768 769 794 793 792 791 790 789 771 770 795 796 800 798 797 799 802 801 803 805 804 807 806 652 651 653 654 655 656 657 658 659 660 661 662 663 664 665 666 667 668 669 670 671 672 673 676 675 674 617 616 618 615 614 613 620 621 622 623 624 625 626 627 628 629 630 633 631 632 634 635 636 638 637 639 640 642 641 645 646 644 643 647 648 650 649 539 540 541 542 543 544 545 546 547 548 549 550 551 552 553 555 556 554 557 558 559 560 563 564 565 566 567 569 577 576 575 574 573 572 570 571 578 579 580 581 582 587 586 583 585 584 561 562 568 604 603 602 601 600 599 596 597 598 595 594 591 592 593 590 589 588 1847 1846 1845 1844 1843 1842 1841 1840 1839 1838 1837 1836 1835 1834 1833 1829 1830 1831 1892 1891 1890 1889 1888 1887 1886 1885 1884 1881 1883 1882 1851 1852 1850 1849 1848 1853 1854 1855 1856 1857 1858 1859 1860 1861 1862 1863 1866 1864 1865 1867 1868 1869 1870 1871 1872 1873 1874 1875 1876 1877 1878 1879 1880 1903 1904 1902 1901 1899 1898 1897 1896 1895 1893 1894 1900 1911 1912 1925 1926 1927 1924 1923 1922 1921 1920 1919 1916 1819 1820 1915 1914 1913 1822 1823 1821 1824 1825 1826 1827 1828 1832 1905 1906 1907 1908 1933 1932 1931 1930 1929 1928 1910 1909 1934 1935 1939 1937 1936 1938 1941 1940 1942 1944 1943 1946 1945 1791 1790 1792 1793 1794 1795 1796 1797 1798 1799 1800 1801 1802 1803 1804 1805 1806 1807 1808 1809 1810 1811 1812 1815 1814 1813 1756 1755 1757 1754 1753 1752 1759 1760 1761 1762 1763 1764 1765 1766 1767 1768 1769 1772 1770 1771 1773 1774 1775 1777 1776 1778 1779 1781 1780 1784 1785 1783 1782 1786 1787 1789 1788 1678 1679 1680 1681 1682 1683 1684 1685 1686 1687 1688 1689 1690 1691 1692 1694 1695 1693 1696 1697 1698 1699 1702 1703 1704 1705 1706 1708 1716 1715 1714 1713 1712 1711 1709 1710 1717 1718 1719 1720 1721 1726 1725 1722 1724 1723 1700 1701 1707 1743 1742 1741 1740 1739 1738 1735 1736 1737 1734 1733 1730 1731 1732 1729 1728 1727 1744 1746 1745 1747 1748 1749 1750 1751 1758 1816 1817 1818 1917 1918 1949 1950 1951 1952 1953 1948 1947 1668 1665 1664 1666 1661 1662 1663 1667 1660 1659 1613 1612 1611 1610 1609 1608 1607 1606 1605 1604 1603 1602 2160 2161 2159 1615 1616 1614 2156 2157 2158 2177 2178 2179 2180 2181 2182 2183 2184 2185 2186 2187 2188 2102 2101 2100 2099 2098 2097 2096 2095 2094 2093 2092 2091 2090 2089 2191 2190 2189 2192 2193 2194 2195 2196 2197 2198 2199 2200 2201 2202 2203 2204 2205 2206 2075 2076 2077 2078 2079 2080 2081 2082 2083 2084 2085 2019 2018 2021 2020 2086 2087 2088 2207 2208 2209 2210 2211 2212 2215 2214 2213 2272 2273 2271 2274 2275 2276 2269 2268 2267 2266 2265 2264 2263 2262 2261 2260 2259 2256 2258 2257 2226 2227 2225 2224 2223 2222 2221 2220 2219 2218 2217 2216 257 256 253 254 255 258 259 260 261 262 249 248 247 246 245 244 243 242 241 266 267 268 269 270 272 274 273 275 276 277 278 279 280 281 284 282 283 343 344 345 341 340 339 342 337 338 336 335 334 333 332 331 330 329 328 327 326 325 324 322 323 321 320 319 318 317 316 315 312 311 313 314 306 305 304 303 302 300 301 299 298 297 296 295 294 293 290 291 292 289 287 288 286 285 271 265 264 263 250 251 252 355 354 356 357 358 350 349 348 347 346 351 352 353 359 360 361 362 363 2270 2277 2278 2279 2280 2281 2282 2284 2283 2290 2289 2288 2287 2286 2285 2309 2308 2307 2302 2301 2300 2299 2298 2297 2296 2295 2294 2293 2292 2291 2315 2314 2313 2312 2311 2322 2320 2319 2318 2317 2316 2310 2328 2327 2325 2326 2330 2329 2305 2304 2306 2303 2332 2331 2336 2334 2333 2335 2338 2337 2339 2341 2340 2343 2342 2344 2345 2346 2347 2348 2349 2350 2240 2239 2241 2242 2243 2244 2245 2246 2247 2248 2249 2250 2251 2252 2253 2254 2255 2229 2228 2230 2231 2232 2233 2234 2235 2236 2237 2238 228 229 230 231 232 233 234 235 237 238 236 239 240 223 222 221 224 225 226 227 42 43 44 45 46 47 49 50 48 33 34 35 36 37 38 39 40 41 190 191 192 193 194 195 196 197 198 199 200 201 202 203 204 205 209 208 207 206 210 211 213 214 215 216 217 218 219 220 170 171 173 172 184 183 182 181 180 179 178 177 164 165 166 167 168 169 174 175 176 163 162 161 160 159 158 157 152 151 148 149 150 153 154 155 156 90 89 91 92 93 94 95 96 97 98 99 1226 1227 1228 1229 1230 1231 1232 1233 1234 1235 1236 1237 1238 1239 1240 1241 1242 1243 1244 72 73 74 75 76 77 78 79 80 81 82 83 84 85 86 87 88 146 147 145 144 142 143 122 123 121 120 118 119 124 125 127 128 129 130 131 132 133 134 135 136 138 137 141 140 139 212 126 1110 1111 1112 1113 1114 116 117 115 114 111 112 1126 1125 1124 1121 1120 1119 1118 1117 1116 1115 1101 1100 1099 1098 1097 1096 1095 1094 1091 1090 1092 1087 1088 1089 1093 1086 1084 1083 1082 1081 1080 1079 1078 1077 1104 1103 1102 1106 1105 1107 1108 1109 1122 1123 113 1127 1128 1135 1136 1137 1138 1139 1140 1141 1142 1143 1144 1145 1146 1147 1148 1150 1149 1170 1169 1171 1172 1173 1174 1175 1178 1177 1176 1179 1180 1181 1182 1183 1184 1185 1186 1187 1188 1189 1190 1197 1198 1199 1200 1201 1202 1203 1204 1205 1206 1207 1208 1209 1210 1211 1212 1213 1214 100 101 102 103 104 105 106 107 108 110 109 1129 1130 1131 1132 1133 1134 1168 1167 1165 1164 1163 1162 1161 1160 1159 1158 1157 1156 1154 1155 1151 1152 1153 1085 1166 965 966 967 968 969 970 971 972 973 974 975 976 977 978 979 980 981 982 985 984 983 952 953 951 950 949 948 947 946 945 944 943 942 941 940 939 998 999 997 1000 1001 1002 995 994 993 992 991 990 989 988 987 986 1047 1048 1046 1038 1037 1039 1040 1041 1042 1043 1044 1045 1036 1035 1034 1033 1028 1027 1026 1025 1024 1023 1022 1014 1013 1012 1011 1010 1008 1009 1007 1006 1005 1004 1003 996 1016 1015 1020 1021 1019 1018 1017 389 390 391 392 393 383 384 385 386 387 388 1029 1032 1030 1031 1055 1056 1052 1051 1050 1049 1053 1054 1057 1058 1062 1060 1059 1061 1064 1063 1065 1067 1066 1069 1068 1070 1071 1072 1073 1074 1075 1076 962 961 960 963 964 959 958 957 956 955 954 938 937 936 935 934 933 814 813 812 811 810 809 808 722 721 720 723 724 719 718 717 716 715 714 779 778 679 677 678 619 612 611 610 609 608 607 605 606 1601 1600 1599 1598 1597 1545 1546 1548 1547 1371 1372 1373 1374 1376 1375 1379 1378 1377 1450 1383 1382 1380 1381 1364 1366 1367 1368 1369 1370 2369 2368 2365 2364 2367 2359 188 189 187 186 185 309 310 308 307 2321 2323 2324 1385 1384 1328 1327 1329 1330 1331 1332 1333 1334 1335 1336 1337 1286 1287 1288 1289 1290 1291 1292 1293 1294 1295 1296 1297 1298 1299 1300 1301 1302 1303 1309 1310 1311 1312 1313 1314 1315 1316 1317 1318 1319 1320 1321 1322 1323 1324 1325 1326 1285 1284 1283 1282 1281 1280 1279 1278 1277 1276 1275 1255 1254 1253 1252 1251 1250 1249 1248 1247 1246 1245 1225 1224 1223 1222 1221 1220 1219 1218 1217 1216 1215 1191 1192 1193 1194 1195 1196 1304 1305 1306 1307 1308 
